c Harder SAT problem instance
c May require more time to solve
c 20 variables, 50 clauses
p cnf 20 50
1 2 3 0
-1 -2 4 0
2 -3 5 0
-4 5 6 0
3 -5 7 0
-6 7 8 0
4 -7 9 0
-8 9 10 0
5 -9 11 0
-10 11 12 0
6 -11 13 0
-12 13 14 0
7 -13 15 0
-14 15 16 0
8 -15 17 0
-16 17 18 0
9 -17 19 0
-18 19 20 0
10 -19 -1 0
-20 1 2 0
11 12 -3 0
-11 13 -4 0
12 14 -5 0
-12 15 -6 0
13 16 -7 0
-13 17 -8 0
14 18 -9 0
-14 19 -10 0
15 20 -11 0
-15 -1 -12 0
16 -2 -13 0
-16 -3 -14 0
17 -4 -15 0
-17 -5 -16 0
18 -6 -17 0
-18 -7 -18 0
19 -8 -19 0
-19 -9 -20 0
20 -10 1 0
-20 -11 2 0
1 -12 3 0
-1 -13 4 0
2 -14 5 0
-2 -15 6 0
3 -16 7 0
-3 -17 8 0
4 -18 9 0
-4 -19 10 0
5 -20 11 0
-5 1 12 0